c File: flat50_3_0.col
c
c SOURCE: Joseph Culberson (joe@cs.ualberta.ca)
c DESCRIPTION: Quasi-random coloring problem
c              generated with flatness = 0
c                             probability = 0.139
c                             known coloring = 3
c                             random seed = 1804
c              Creation Date:  Tue Jun  9 12:18:20 1998
c Maximum degree = 8 Minimum degree = 1
c p edge 50 115
c cnf created by edge2cnf
p cnf 150 545
-1 -2 0
-1 -3 0
-2 -3 0
1 2 3 0
-4 -5 0
-4 -6 0
-5 -6 0
4 5 6 0
-7 -8 0
-7 -9 0
-8 -9 0
7 8 9 0
-10 -11 0
-10 -12 0
-11 -12 0
10 11 12 0
-13 -14 0
-13 -15 0
-14 -15 0
13 14 15 0
-16 -17 0
-16 -18 0
-17 -18 0
16 17 18 0
-19 -20 0
-19 -21 0
-20 -21 0
19 20 21 0
-22 -23 0
-22 -24 0
-23 -24 0
22 23 24 0
-25 -26 0
-25 -27 0
-26 -27 0
25 26 27 0
-28 -29 0
-28 -30 0
-29 -30 0
28 29 30 0
-31 -32 0
-31 -33 0
-32 -33 0
31 32 33 0
-34 -35 0
-34 -36 0
-35 -36 0
34 35 36 0
-37 -38 0
-37 -39 0
-38 -39 0
37 38 39 0
-40 -41 0
-40 -42 0
-41 -42 0
40 41 42 0
-43 -44 0
-43 -45 0
-44 -45 0
43 44 45 0
-46 -47 0
-46 -48 0
-47 -48 0
46 47 48 0
-49 -50 0
-49 -51 0
-50 -51 0
49 50 51 0
-52 -53 0
-52 -54 0
-53 -54 0
52 53 54 0
-55 -56 0
-55 -57 0
-56 -57 0
55 56 57 0
-58 -59 0
-58 -60 0
-59 -60 0
58 59 60 0
-61 -62 0
-61 -63 0
-62 -63 0
61 62 63 0
-64 -65 0
-64 -66 0
-65 -66 0
64 65 66 0
-67 -68 0
-67 -69 0
-68 -69 0
67 68 69 0
-70 -71 0
-70 -72 0
-71 -72 0
70 71 72 0
-73 -74 0
-73 -75 0
-74 -75 0
73 74 75 0
-76 -77 0
-76 -78 0
-77 -78 0
76 77 78 0
-79 -80 0
-79 -81 0
-80 -81 0
79 80 81 0
-82 -83 0
-82 -84 0
-83 -84 0
82 83 84 0
-85 -86 0
-85 -87 0
-86 -87 0
85 86 87 0
-88 -89 0
-88 -90 0
-89 -90 0
88 89 90 0
-91 -92 0
-91 -93 0
-92 -93 0
91 92 93 0
-94 -95 0
-94 -96 0
-95 -96 0
94 95 96 0
-97 -98 0
-97 -99 0
-98 -99 0
97 98 99 0
-100 -101 0
-100 -102 0
-101 -102 0
100 101 102 0
-103 -104 0
-103 -105 0
-104 -105 0
103 104 105 0
-106 -107 0
-106 -108 0
-107 -108 0
106 107 108 0
-109 -110 0
-109 -111 0
-110 -111 0
109 110 111 0
-112 -113 0
-112 -114 0
-113 -114 0
112 113 114 0
-115 -116 0
-115 -117 0
-116 -117 0
115 116 117 0
-118 -119 0
-118 -120 0
-119 -120 0
118 119 120 0
-121 -122 0
-121 -123 0
-122 -123 0
121 122 123 0
-124 -125 0
-124 -126 0
-125 -126 0
124 125 126 0
-127 -128 0
-127 -129 0
-128 -129 0
127 128 129 0
-130 -131 0
-130 -132 0
-131 -132 0
130 131 132 0
-133 -134 0
-133 -135 0
-134 -135 0
133 134 135 0
-136 -137 0
-136 -138 0
-137 -138 0
136 137 138 0
-139 -140 0
-139 -141 0
-140 -141 0
139 140 141 0
-142 -143 0
-142 -144 0
-143 -144 0
142 143 144 0
-145 -146 0
-145 -147 0
-146 -147 0
145 146 147 0
-148 -149 0
-148 -150 0
-149 -150 0
148 149 150 0
-85 -1 0
-86 -2 0
-87 -3 0
-148 -1 0
-149 -2 0
-150 -3 0
-61 -4 0
-62 -5 0
-63 -6 0
-67 -4 0
-68 -5 0
-69 -6 0
-85 -4 0
-86 -5 0
-87 -6 0
-100 -4 0
-101 -5 0
-102 -6 0
-103 -4 0
-104 -5 0
-105 -6 0
-112 -4 0
-113 -5 0
-114 -6 0
-130 -4 0
-131 -5 0
-132 -6 0
-52 -7 0
-53 -8 0
-54 -9 0
-73 -7 0
-74 -8 0
-75 -9 0
-118 -7 0
-119 -8 0
-120 -9 0
-121 -7 0
-122 -8 0
-123 -9 0
-145 -7 0
-146 -8 0
-147 -9 0
-148 -7 0
-149 -8 0
-150 -9 0
-70 -10 0
-71 -11 0
-72 -12 0
-76 -10 0
-77 -11 0
-78 -12 0
-103 -10 0
-104 -11 0
-105 -12 0
-58 -13 0
-59 -14 0
-60 -15 0
-61 -16 0
-62 -17 0
-63 -18 0
-82 -16 0
-83 -17 0
-84 -18 0
-112 -16 0
-113 -17 0
-114 -18 0
-58 -19 0
-59 -20 0
-60 -21 0
-94 -19 0
-95 -20 0
-96 -21 0
-103 -19 0
-104 -20 0
-105 -21 0
-109 -19 0
-110 -20 0
-111 -21 0
-142 -19 0
-143 -20 0
-144 -21 0
-58 -22 0
-59 -23 0
-60 -24 0
-79 -22 0
-80 -23 0
-81 -24 0
-88 -22 0
-89 -23 0
-90 -24 0
-100 -22 0
-101 -23 0
-102 -24 0
-109 -22 0
-110 -23 0
-111 -24 0
-124 -22 0
-125 -23 0
-126 -24 0
-67 -25 0
-68 -26 0
-69 -27 0
-76 -25 0
-77 -26 0
-78 -27 0
-79 -25 0
-80 -26 0
-81 -27 0
-88 -25 0
-89 -26 0
-90 -27 0
-124 -25 0
-125 -26 0
-126 -27 0
-58 -28 0
-59 -29 0
-60 -30 0
-67 -28 0
-68 -29 0
-69 -30 0
-88 -28 0
-89 -29 0
-90 -30 0
-94 -28 0
-95 -29 0
-96 -30 0
-139 -28 0
-140 -29 0
-141 -30 0
-52 -31 0
-53 -32 0
-54 -33 0
-73 -31 0
-74 -32 0
-75 -33 0
-79 -31 0
-80 -32 0
-81 -33 0
-97 -31 0
-98 -32 0
-99 -33 0
-118 -31 0
-119 -32 0
-120 -33 0
-130 -31 0
-131 -32 0
-132 -33 0
-79 -34 0
-80 -35 0
-81 -36 0
-109 -34 0
-110 -35 0
-111 -36 0
-112 -34 0
-113 -35 0
-114 -36 0
-115 -34 0
-116 -35 0
-117 -36 0
-148 -34 0
-149 -35 0
-150 -36 0
-61 -37 0
-62 -38 0
-63 -39 0
-67 -37 0
-68 -38 0
-69 -39 0
-85 -37 0
-86 -38 0
-87 -39 0
-97 -37 0
-98 -38 0
-99 -39 0
-127 -37 0
-128 -38 0
-129 -39 0
-136 -37 0
-137 -38 0
-138 -39 0
-142 -37 0
-143 -38 0
-144 -39 0
-76 -40 0
-77 -41 0
-78 -42 0
-85 -40 0
-86 -41 0
-87 -42 0
-112 -40 0
-113 -41 0
-114 -42 0
-121 -40 0
-122 -41 0
-123 -42 0
-145 -40 0
-146 -41 0
-147 -42 0
-94 -43 0
-95 -44 0
-96 -45 0
-121 -43 0
-122 -44 0
-123 -45 0
-145 -43 0
-146 -44 0
-147 -45 0
-55 -46 0
-56 -47 0
-57 -48 0
-100 -46 0
-101 -47 0
-102 -48 0
-118 -46 0
-119 -47 0
-120 -48 0
-130 -46 0
-131 -47 0
-132 -48 0
-133 -46 0
-134 -47 0
-135 -48 0
-136 -46 0
-137 -47 0
-138 -48 0
-115 -49 0
-116 -50 0
-117 -51 0
-145 -49 0
-146 -50 0
-147 -51 0
-148 -49 0
-149 -50 0
-150 -51 0
-106 -52 0
-107 -53 0
-108 -54 0
-136 -52 0
-137 -53 0
-138 -54 0
-115 -55 0
-116 -56 0
-117 -57 0
-127 -55 0
-128 -56 0
-129 -57 0
-130 -55 0
-131 -56 0
-132 -57 0
-121 -58 0
-122 -59 0
-123 -60 0
-124 -58 0
-125 -59 0
-126 -60 0
-127 -58 0
-128 -59 0
-129 -60 0
-139 -58 0
-140 -59 0
-141 -60 0
-109 -64 0
-110 -65 0
-111 -66 0
-115 -64 0
-116 -65 0
-117 -66 0
-121 -64 0
-122 -65 0
-123 -66 0
-124 -67 0
-125 -68 0
-126 -69 0
-118 -70 0
-119 -71 0
-120 -72 0
-124 -70 0
-125 -71 0
-126 -72 0
-118 -73 0
-119 -74 0
-120 -75 0
-130 -73 0
-131 -74 0
-132 -75 0
-139 -73 0
-140 -74 0
-141 -75 0
-145 -73 0
-146 -74 0
-147 -75 0
-103 -76 0
-104 -77 0
-105 -78 0
-121 -76 0
-122 -77 0
-123 -78 0
-124 -76 0
-125 -77 0
-126 -78 0
-145 -76 0
-146 -77 0
-147 -78 0
-112 -79 0
-113 -80 0
-114 -81 0
-142 -82 0
-143 -83 0
-144 -84 0
-145 -82 0
-146 -83 0
-147 -84 0
-130 -85 0
-131 -86 0
-132 -87 0
-133 -88 0
-134 -89 0
-135 -90 0
-130 -91 0
-131 -92 0
-132 -93 0
-109 -94 0
-110 -95 0
-111 -96 0
-118 -94 0
-119 -95 0
-120 -96 0
-142 -94 0
-143 -95 0
-144 -96 0
-145 -94 0
-146 -95 0
-147 -96 0
-106 -97 0
-107 -98 0
-108 -99 0
-109 -97 0
-110 -98 0
-111 -99 0
-127 -97 0
-128 -98 0
-129 -99 0
-118 -100 0
-119 -101 0
-120 -102 0
